NAME: SCAIL127_3136_07
COMMENT: Generated as the SCAIL100 dataset for the MIM2025 SCLDC Challenge
TYPE: Multi-Depot CVRP
DEPOTS: 3
DIMENSION: 130
EDGE_WEIGHT_TYPE: EUC_2D
CAPACITY: 371

NODE_COORD_SECTION 
1    404  666 
2    49   74  
3    596  59  
4    456  291 
5    440  884 
6    817  572 
7    596  970 
8    684  79  
9    733  395 
10   680  66  
11   476  599 
12   896  837 
13   527  973 
14   83   588 
15   756  253 
16   62   748 
17   496  851 
18   697  841 
19   599  406 
20   586  808 
21   104  0   
22   549  103 
23   563  285 
24   467  70  
25   718  317 
26   603  186 
27   459  294 
28   593  816 
29   895  696 
30   723  425 
31   798  974 
32   508  82  
33   106  493 
34   428  71  
35   170  459 
36   60   846 
37   970  228 
38   692  757 
39   88   444 
40   945  464 
41   307  537 
42   921  891 
43   155  955 
44   579  126 
45   370  306 
46   795  321 
47   140  838 
48   284  904 
49   577  61  
50   120  524 
51   963  472 
52   72   895 
53   798  249 
54   505  60  
55   570  879 
56   219  38  
57   411  562 
58   508  696 
59   407  400 
60   580  154 
61   485  713 
62   294  132 
63   975  128 
64   775  350 
65   553  120 
66   105  595 
67   905  389 
68   698  185 
69   584  654 
70   980  236 
71   269  288 
72   645  642 
73   408  403 
74   99   560 
75   711  358 
76   500  431 
77   564  434 
78   544  437 
79   63   195 
80   623  74  
81   451  166 
82   363  172 
83   378  624 
84   615  53  
85   429  547 
86   180  154 
87   50   999 
88   55   467 
89   429  147 
90   579  326 
91   112  348 
92   63   590 
93   136  296 
94   246  92  
95   908  684 
96   68   213 
97   608  508 
98   506  896 
99   662  591 
100  938  892 
101  237  674 
102  4    149 
103  782  571 
104  401  407 
105  584  315 
106  633  210 
107  428  168 
108  154  84  
109  707  879 
110  649  410 
111  729  64  
112  573  835 
113  226  47  
114  238  12  
115  971  372 
116  931  519 
117  192  381 
118  40   985 
119  223  786 
120  351  746 
121  321  348 
122  625  119 
123  628  26  
124  254  813 
125  967  276 
126  860  95  
127  184  715 
128  367  699 
129  632  670 
130  355  23  

DEMAND_SECTION
1    0   
2    0   
3    0   
4    7   
5    8   
6    5   
7    8   
8    10  
9    5   
10   10  
11   5   
12   5   
13   7   
14   6   
15   8   
16   10  
17   6   
18   5   
19   8   
20   6   
21   8   
22   9   
23   9   
24   8   
25   6   
26   9   
27   8   
28   7   
29   6   
30   8   
31   10  
32   8   
33   9   
34   6   
35   5   
36   8   
37   7   
38   9   
39   5   
40   7   
41   10  
42   9   
43   8   
44   7   
45   9   
46   10  
47   7   
48   6   
49   8   
50   9   
51   9   
52   7   
53   10  
54   10  
55   10  
56   8   
57   5   
58   9   
59   9   
60   7   
61   8   
62   7   
63   6   
64   5   
65   5   
66   8   
67   8   
68   10  
69   10  
70   7   
71   8   
72   10  
73   7   
74   7   
75   5   
76   6   
77   8   
78   8   
79   5   
80   6   
81   7   
82   9   
83   9   
84   9   
85   9   
86   10  
87   6   
88   5   
89   8   
90   5   
91   8   
92   5   
93   5   
94   9   
95   5   
96   9   
97   9   
98   9   
99   10  
100  10  
101  5   
102  10  
103  9   
104  10  
105  5   
106  6   
107  7   
108  10  
109  10  
110  10  
111  8   
112  7   
113  8   
114  9   
115  6   
116  7   
117  9   
118  8   
119  8   
120  7   
121  5   
122  9   
123  9   
124  10  
125  5   
126  5   
127  7   
128  7   
129  5   
130  7   

DEPOT_SECTION
1    404  666 
2    49   74  
3    596  59  
-1
EOF
